c This Formular is generated by mcnf
c
c    horn? no 
c    forced? no 
c    mixed sat? no 
c    clause length = 3 
c
p cnf 20  91 
 15 -8 1 0
15 6 -13 0
7 -8 11 0
-7 15 -10 0
13 16 12 0
-11 -17 12 0
13 -19 17 0
10 2 -8 0
16 -18 -7 0
-16 -9 -7 0
15 9 13 0
6 -1 2 0
-18 14 12 0
-15 -1 -13 0
11 7 -18 0
4 -19 17 0
-11 13 3 0
17 19 -16 0
-1 17 -6 0
5 6 9 0
-4 5 13 0
%
0

37 45 96 77 49 33 69 39 85 79 33 51 94 73 57 35 11 79 37 99
